p cnf 56 165
a 9 55 0
e 1 2 3 4 5 6 7 8 10 11 12 13 14 15 16 17 18 19 20 21 22 23 24 25 26 27 28 29 30 31 32 33 34 35 36 37 38 39 40 41 42 43 44 45 46 47 48 49 50 51 52 53 54 56 0
-3 -1 0
-3 -2 0
1 2 3 0
-6 4 0
-6 -5 0
-4 5 6 0
10 8 0
10 -9 0
-8 9 -10 0
11 -7 0
11 10 0
7 -10 -11 0
11 -1 -12 0
-11 1 -12 0
11 1 12 0
-11 -1 12 0
-13 -7 0
-13 -4 0
7 4 13 0
-14 13 0
-14 -6 0
-13 6 14 0
12 -14 -15 0
-12 14 -15 0
12 14 15 0
-12 -14 15 0
16 6 0
16 15 0
-6 -15 -16 0
17 1 0
17 -1 0
-17 1 -18 0
17 -1 -18 0
-17 -1 18 0
17 1 18 0
19 -9 0
19 18 0
9 -18 -19 0
-20 16 0
-20 -19 0
-16 19 20 0
-6 -4 -21 0
6 4 -21 0
-6 4 21 0
6 -4 21 0
5 -2 -22 0
-5 2 -22 0
5 2 22 0
-5 -2 22 0
-23 21 0
-23 22 0
-21 -22 23 0
-24 20 0
-24 -23 0
-20 23 24 0
-25 3 0
-25 24 0
-3 -24 25 0
-26 -11 0
-26 -17 0
11 17 26 0
27 13 0
27 -26 0
-13 26 -27 0
28 2 0
28 -2 0
-7 -4 -29 0
7 4 -29 0
-7 4 29 0
7 -4 29 0
30 28 0
30 -29 0
-28 29 -30 0
27 -30 -31 0
-27 30 -31 0
27 30 31 0
-27 -30 31 0
10 -4 -32 0
-10 4 -32 0
10 4 32 0
-10 -4 32 0
-34 32 0
-34 -33 0
-32 33 34 0
-35 10 0
-35 18 0
-10 -18 35 0
36 -11 0
36 -35 0
11 35 -36 0
-37 -34 0
-37 -36 0
34 36 37 0
38 -37 0
38 -28 0
37 28 -38 0
31 38 -39 0
-31 -38 -39 0
31 -38 39 0
-31 38 39 0
40 -30 0
40 28 0
30 -28 -40 0
-41 -39 0
-41 40 0
39 -40 41 0
-42 -34 0
-42 13 0
34 -13 42 0
-43 41 0
-43 42 0
-41 -42 43 0
44 -25 0
44 -43 0
25 43 -44 0
45 -34 0
45 -26 0
34 26 -45 0
-33 45 -46 0
33 -45 -46 0
-33 -45 46 0
33 45 46 0
47 -28 -48 0
-47 28 -48 0
47 28 48 0
-47 -28 48 0
-49 48 0
-49 27 0
-48 -27 49 0
50 46 0
50 49 0
-46 -49 -50 0
-47 -33 -51 0
47 33 -51 0
-47 33 51 0
47 -33 51 0
-53 -2 0
-53 -52 0
2 52 53 0
-54 51 0
-54 -53 0
-51 53 54 0
50 -54 -55 0
-50 54 -55 0
50 54 55 0
-50 -54 55 0
56 -44 0
56 -55 0
44 55 -56 0
-11 25 17 0
-6 44 -36 26 -25 -28 -5 0
-13 -17 -44 37 -22 -19 -10 0
-3 -10 42 -27 49 0
53 7 -40 -2 -6 -26 0
29 52 -2 0
47 32 -49 0
5 41 -33 -32 0
-19 -28 32 0
-46 -1 -51 55 -9 -34 -16 0
5 36 42 46 15 -20 33 11 0
-14 29 -27 -2 -52 17 24 0
-26 -14 -42 -39 48 19 2 -8 0
48 22 -10 -36 -3 -28 0
-8 2 -46 28 51 0
56 0
